100
1000
168
168
167
167
167
166
166
165
165
164
164
164
163
163
163
163
163
160
159
159
159
158
158
158
158
158
158
156
156
155
155
154
154
153
152
150
149
148
147
145
145
144
144
144
143
143
142
138
138
138
138
137
137
136
134
134
133
133
132
132
131
131
130
130
130
129
129
128
128
125
125
124
123
123
123
123
122
122
122
122
121
121
121
120
120
120
119
119
118
118
118
117
115
115
115
115
114
114
114
114
